
Gurobi 7.0.2 (mac64, Python) logging started Mon Sep 25 17:21:17 2017


Gurobi 7.0.2 (mac64, Python) logging started Mon Sep 25 17:22:27 2017


Gurobi 7.0.2 (mac64, Python) logging started Mon Sep 25 17:27:10 2017


Gurobi 7.0.2 (mac64, Python) logging started Mon Sep 25 17:27:35 2017


Gurobi 7.0.2 (mac64, Python) logging started Mon Sep 25 17:28:55 2017

